     6
 t-1h -1.67(1) kcal/mol
 S                    -0.04249611     2.08205122     0.00000000
 S                     0.05680159    -2.01922592     0.00000000
 H                     0.11765172     0.75488726     0.00000000
 H                     1.27274155     2.29819170     0.00000000
 H                    -0.86556303    -2.05716956     0.96207731
 H                    -0.86556303    -2.05716956    -0.96207731

     6
 t-1c -1.63(1) kcal/mol
 S                    -0.05612919    -1.77756589     0.00000000
 S                    -0.05458926     1.89429031     0.00000000
 H                     0.39461025    -3.03272628     0.00000000
 H                     1.17235505    -1.26202295     0.00000000
 H                    -0.71530125     1.24678638    -0.96059139
 H                    -0.71530125     1.24678638     0.96059139

     6
 c-1h -1.59(1) kcal/mol
 S                    -0.07996899     2.09881769     0.00000000
 S                    -0.09593569    -2.01265696     0.00000000
 H                    -0.07010094     0.76207898     0.00000000
 H                     1.25130020     2.16453785     0.00000000
 H                     0.81647711    -2.15214503     0.96213656
 H                     0.81647711    -2.15214503    -0.96213656

     9
r-3h_ttc -5.23(4) kcal/mol
 S                    -2.00463864    -1.19011854     0.01043388
 S                     2.02778066    -1.14501057    -0.02721796
 S                    -0.02543108     2.32031290     0.08983263
 H                    -2.17300268    -1.17355516    -1.31227173
 H                    -0.70234362    -1.47977413    -0.09979043
 H                     2.27529690    -1.09826000    -1.33664391
 H                     1.62778107     0.13221052     0.00217112
 H                    -0.04573310     2.48496953     1.41293130
 H                    -0.92555605     1.33057261     0.13897726

     9
r-3h_ccc -5.11(4) kcal/mol
 S                     2.32953706    -0.00793138     0.07543407
 S                    -1.15789976     2.02140396     0.07543407
 S                    -1.17163730    -2.01347259     0.07543407
 H                     1.35690269     0.91077380     0.02804627
 H                     2.51622295     0.03760808    -1.24409244
 H                    -1.46720459     0.71972530     0.02804627
 H                    -1.29068102     2.16030895    -1.24409244
 H                     0.11030190    -1.63049910     0.02804627
 H                    -1.22554192    -2.19791703    -1.24409244

     9
o-1h1c -3.30(2) kcal/mol
 S                     0.50779392     3.70812612     0.00000000
 S                    -0.98267356    -0.11506162     0.00000000
 S                     0.54402974    -3.44086411     0.00000000
 H                    -0.66714803     4.33749751     0.00000000
 H                    -0.07305035     2.50410127     0.00000000
 H                    -0.13459613    -0.48372838     0.96168491
 H                    -0.13459613    -0.48372838    -0.96168491
 H                    -0.77943346    -3.59559872     0.00000000
 H                     0.76621413    -4.75582882     0.00000000

     9
o-2c_tdtd -3.20(2) kcal/mol
 S                    -0.46966736    -0.81347627    -0.00051111
 S                     3.18267567    -1.29389668     0.00055090
 S                    -2.71181545     2.10939644     0.00063782
 H                    -1.76800925    -1.11593861    -0.00013244
 H                    -0.08244948    -2.08910840    -0.00027936
 H                     2.61047853    -0.56788749    -0.96073932
 H                     2.60828194    -0.56803737     0.96064562
 H                    -1.79712242     1.97661432    -0.96075897
 H                    -1.79587645     1.97500897     0.96062596

     9
o-2h_tata -3.17(3) kcal/mol
 S                    -0.02146261    -0.02087614    -0.00099101
 S                     2.86504960    -2.95810960    -0.00382734
 S                    -2.92117894     2.90334737     0.00365417
 H                    -0.67993420    -0.67221717     0.95887570
 H                    -0.67602529    -0.66591018    -0.96776499
 H                     2.05589869    -1.89473552    -0.00241979
 H                     3.95939037    -2.19716480     0.00139737
 H                    -1.86845572     2.08038625     0.00265576
 H                    -2.14600614     3.98765449     0.00923630

     9
o-2h_taca -3.09(3) kcal/mol
 S                     0.00163684     0.10691244    -0.08446295
 S                    -4.10863349     0.05061146     0.11011525
 S                     4.11130068    -0.25599988     0.00366008
 H                    -0.13616681     1.19398746    -0.84494405
 H                     0.08750628     0.82943971     1.03346446
 H                    -2.78442337    -0.12118573     0.06145178
 H                    -4.34327795    -1.21160212    -0.24823525
 H                     4.33271514     1.01672898    -0.32473109
 H                     2.79157777    -0.12764030    -0.16156379

12
p-6h -8.67(3) kcal/mol
 S                    -1.69679633     0.37398652    -1.75549893
 S                     1.88776905    -1.33916959    -0.91277279
 S                     0.86236186     2.10692990     0.71978164
 S                    -1.05139373    -1.19465140     1.73306700
 H                    -2.32882959    -0.31212602    -0.80098614
 H                    -1.31455965     1.32713704    -0.90019577
 H                     2.31014754    -0.18879976    -0.38232827
 H                     0.80646347    -0.75840512    -1.44757235
 H                     0.29359734     1.18941732     1.50995006
 H                     0.84337175     3.04236889     1.67029429
 H                     0.01206040    -1.55579854     1.00286470
 H                    -0.65160769    -1.89577835     2.79497669

12
p-5h1c -8.43(3) kcal/mol
 S                    -0.05331900     1.98972556     1.54172395
 S                    -1.81449623     0.02109051    -1.43862129
 S                     0.22389883    -1.95539969     1.35371343
 S                     1.80862992     0.11425772    -1.55212658
 H                     0.77687933     1.48671855     0.61984585
 H                    -0.13289870     0.82051196     2.18213295
 H                    -1.55219661     0.90699042    -0.46970670
 H                    -3.06745101    -0.16167758    -1.01801258
 H                    -0.65540836    -1.55703119     0.42499504
 H                    -0.34252513    -3.15660670     1.47680292
 H                     3.07249870     0.30157373    -1.16767479
 H                     1.69817085    -1.01304486    -0.84336835

12
p-3h3c -1595.72491703
 S                    -1.61267936    -0.98060087    -1.46553876
 S                     1.44115954    -1.58093869     1.02566917
 S                     1.22346617     1.26211049    -1.30855715
 S                    -0.99121786     1.50377522     1.62250703
 H                    -2.45718497    -2.00889024    -1.36585990
 H                    -0.70630381    -1.55872790    -0.66946231
 H                     1.27513459    -2.35459698     2.10002061
 H                     0.69600665    -0.59152290     1.53403331
 H                     1.39173015     0.21926188    -2.12356837
 H                     2.32925589     0.97303197    -0.61980517
 H                    -1.97667950     1.21644437     2.47497249
 H                    -1.55511859     0.80619933     0.63081197

    12
b-4h2c -8.16(2) kcal/mol
 S                    -1.27051327    -1.52596431     1.31571812
 S                     1.29020011    -1.50825742    -1.31697595
 S                     1.30647557     1.52512118     1.28101464
 S                    -1.32617018     1.50909760    -1.27975949
 H                    -1.65909660    -0.51386113     0.53072862
 H                    -2.02108201    -1.10316350     2.33461286
 H                     1.66561976    -0.49184667    -0.53114668
 H                     2.03521302    -1.07490743    -2.33551608
 H                     0.52766565     0.50560926     1.66260199
 H                     2.32795152     1.10334692     2.02864677
 H                    -0.53419635     0.50009558    -1.66218693
 H                    -2.34209039     1.07472105    -2.02774586

    12
f-5h -8.27(3) kcal/mol
 S                     0.93461014     2.27053120     0.30261326
 S                     1.61362672    -1.61838627    -0.99598966
 S                    -0.54003618    -0.96227118     2.01204358
 S                    -2.11548641     0.35648833    -1.43409155
 H                    -0.24888670     2.12764365    -0.30433424
 H                     1.40141298     1.15662435    -0.27101751
 H                     1.67023629    -1.80692118     0.32438657
 H                     2.91940728    -1.36125168    -1.08443445
 H                    -0.06367492     0.27810564     1.84500388
 H                    -0.89576655    -0.73905193     3.27781379
 H                    -0.95849121    -0.23584350    -1.73904046
 H                    -2.10754087    -0.16122934    -0.20187724

12
p-4h2c -8.05(2) kcal/mol
 S                    -1.61264481    -1.01027767    -1.39526572
 S                     1.02324598    -1.55466795     1.54270342
 S                     1.84439266     1.17602792    -1.28998940
 S                    -1.19256772     1.36834741     1.21529976
 H                    -0.87067496    -1.53230302    -0.41071127
 H                    -1.03348616    -1.77465051    -2.32276023
 H                     1.92937633    -2.49712976     1.27719855
 H                     1.58769244    -0.68741626     0.69293257
 H                     1.26745929     1.87984798    -0.31282525
 H                     0.68673058     0.57644731    -1.59243908
 H                    -1.60413448     2.24650985     2.13152960
 H                    -1.90393180     1.94701610     0.24695294

12
p-5h -8.16(2) kcal/mol
 S                     2.50466731     0.11191434     1.19494992
 S                     0.15498615    -1.81360315    -1.34513448
 S                    -2.46173941    -0.23068673     1.19119770
 S                    -0.17134031     2.08133267    -1.13360730
 H                     1.93737215    -0.86974060     0.48453772
 H                     1.71195945    -0.11390703     2.24324344
 H                    -0.05966006    -3.12990497    -1.35623575
 H                    -0.79882392    -1.58998035    -0.43230833
 H                    -1.86854432     0.72045237     0.45705358
 H                    -1.64580158    -0.01867961     2.22444739
 H                    -0.08529931     1.08345127    -2.01602340
 H                     0.81091065     1.57478463    -0.37746729

    12
f-5h_ii -8.06(5) kcal/mol
 S                     0.00227969     1.85979069    -1.02257012
 S                    -0.01434848    -2.06465394    -0.88333974
 S                    -2.97819888     0.04063850     0.94503826
 S                     2.98926201     0.01387354     0.91030721
 H                    -0.00249356     2.28472286    -2.28669445
 H                    -0.00548494     0.56687714    -1.37601905
 H                     0.95941866    -1.65246169    -0.06366693
 H                    -0.97489571    -1.64378571    -0.05255233
 H                    -2.34092857     0.97478900     0.23228098
 H                    -2.44738252     0.47160738     2.08980920
 H                     2.35143988     0.95382757     0.20571567
 H                     2.47644883     0.44905363     2.06167190

    12
f-5h_iii -8.02(5) kcal/mol
 S                    -0.38593123     0.01766077     2.18620867
 S                     1.00682435    -1.46465588    -1.16661226
 S                     2.18619721     2.20962528    -0.08969784
 S                    -2.89772941    -0.58657534    -0.96439349
 H                    -1.37955500     0.07181374     1.29148916
 H                     0.29538147     0.99515700     1.57707084
 H                     1.61334339    -2.63526827    -0.96594179
 H                     0.70075272    -1.31390330     0.12939372
 H                     3.16569466     1.98583769     0.78714874
 H                     2.29026076     0.98083487    -0.60532643
 H                    -3.43008625    -1.64496959    -0.35222481
 H                    -1.80036304    -1.26718131    -1.30968056

    12
 r-4h_tttt -7.97(5) kcal/mol
 S                    -0.49600377     2.73169576     0.15245802
 S                    -2.69006515    -0.62382506     0.01565757
 S                     0.67137006    -2.81267841    -0.02693374
 S                     2.85201473     0.55052581    -0.18751350
 H                    -1.27236519     1.64048881     0.11133735
 H                    -0.66917909     2.97833786    -1.14649200
 H                    -1.60131834    -1.40027670     0.09880672
 H                    -2.93304496    -0.71982560     1.32326527
 H                     1.44376336    -1.71922552    -0.08106255
 H                     0.73546760    -2.99758108    -1.34594689
 H                     1.76295353     1.32299746    -0.07618599
 H                     3.12228926     0.63859473     1.11528684

    12
r-4h_ttcc -7.89(5) kcal/mol
 S                    -1.00819783     2.62917961     0.12156714
 S                    -2.66283801    -1.01999606    -0.08344309
 S                     1.00819783    -2.62917961    -0.12156714
 S                     2.66283801     1.01999606     0.08344309
 H                    -1.00820170     2.99766347    -1.15995175
 H                     0.23499943     2.13544423     0.04285773
 H                    -2.74820462    -1.06789780    -1.41335734
 H                    -2.16523119     0.22385951    -0.09862776
 H                     1.00820170    -2.99766347     1.15995175
 H                    -0.23499943    -2.13544423    -0.04285773
 H                     2.74820462     1.06789780     1.41335734
 H                     2.16523119    -0.22385951     0.09862776

    12
 f-5h_iv -7.72(6) kcal/mol
 S                     0.17271987     1.96262634    -0.78318736
 S                    -3.17712984     0.28008649     0.76477329
 S                     3.16510925    -0.25550956     0.82101469
 S                    -0.16080448    -1.98403138    -0.75826853
 H                     0.06247318     0.64249530    -0.99236935
 H                     0.14638537     1.80517063     0.54175249
 H                    -2.50167388     1.09056072    -0.05551169
 H                    -3.95566981    -0.16802770    -0.22077418
 H                     2.64814081     0.65612580    -0.00824689
 H                     3.87554010    -0.82650466    -0.15237451
 H                    -1.10411009    -1.54120411     0.08004449
 H                     0.82989775    -1.70475684     0.09568113

    12
 f-2h3c -7.21(1) kcal/mol
 S                     3.29380760    -0.14493229    -0.51069114
 S                     0.06549968    -1.51603434     0.55850942
 S                    -3.28994926    -0.38745452    -0.39678222
 S                    -0.06989133     2.02633058     0.27809924
 H                     2.58359485    -0.66934737    -1.51023603
 H                     2.38072830     0.80659263    -0.29289904
 H                    -0.87187218    -2.23340395     1.17886192
 H                     1.07401857    -2.16166342     1.14517064
 H                    -2.44316011     0.62921129    -0.20736229
 H                    -2.57638445    -0.85811002    -1.42041027
 H                    -0.02932418     1.52774978     1.51328944
 H                    -0.10856407     3.29044392     0.70422333
