     6
 t-1C
 Se                   -0.00908766    -1.89792177     0.00000000
 Se                    0.04695632     1.90485623     0.00000000
 H                     0.37514269    -3.30569204     0.00000000
 H                     1.38446422    -1.47755122     0.00000000
 H                    -0.81727986     1.35868594    -1.03894034
 H                    -0.81727986     1.35868594     1.03894034

     6
 2C-DADA
 Se                   -1.81677795    -0.00089794    -0.03550235
 Se                    1.81677795     0.00089794    -0.03550235
 H                    -1.58498552     0.81131805     1.15114197
 H                    -3.11476876    -0.43062491     0.47244165
 H                     1.58498552    -0.81131805     1.15114197
 H                     3.11476876     0.43062491     0.47244165

     6
 t-1H
 Se                   -0.01625075     2.21044730     0.00000000
 Se                    0.02869568    -2.17806976     0.00000000
 H                     0.12978797     0.75702866     0.00000000
 H                     1.43046437     2.38434981     0.00000000
 H                    -0.99121639    -2.12006771     1.03950995
 H                    -0.99121639    -2.12006771    -1.03950995

     6
 c-1H
 Se                   -0.05155822     2.22411773     0.00000000
 Se                   -0.05380202    -2.16593676     0.00000000
 H                    -0.07812723     0.76353262     0.00000000
 H                     1.40572509     2.22434850     0.00000000
 H                     0.96696745    -2.12539502     1.03949436
 H                     0.96696745    -2.12539502    -1.03949436

     9
 R-3H_ttc
 Se                   -2.12916533    -1.30002729    -0.01385203
 Se                    2.18682666    -1.19633180    -0.00038931
 Se                   -0.06087627     2.48973830     0.05380567
 H                    -2.16397793    -1.19900476    -1.46773553
 H                    -0.68806107    -1.54877798    -0.03857910
 H                     2.24478286    -1.24235350    -1.45621176
 H                     1.68695487     0.17769042    -0.03536922
 H                     0.00275884     2.55740988     1.50853752
 H                    -0.99706517     1.36793534     0.11811957

     9
 R-3H_ccc
 Se                   -2.12977219    -1.29499691     0.03985925
 Se                    2.18638430    -1.19693937     0.03985851
 Se                   -0.05661240     2.49193669     0.03985897
 H                    -2.15252390    -1.24760600    -1.41700551
 H                    -0.68889950    -1.54640223     0.03600000
 H                     2.15671781    -1.24033823    -1.41700625
 H                     1.68367185     0.17659578     0.03599959
 H                    -0.00419482     2.48794416    -1.41700579
 H                    -0.99477206     1.36980702     0.03600019

     9
 R-2H1C_ctt
 Se                   -2.09907695    -0.95649917     0.21322942
 Se                    2.19646564    -1.35949018    -0.06423874
 Se                   -0.12469191     2.27368378    -0.09568001
 H                    -2.12532231    -0.54553758    -1.18522363
 H                    -0.71738076    -1.41502178     0.08060613
 H                     2.09962067    -1.45175814    -1.51580529
 H                     1.67922680     0.00790447    -0.08984747
 H                    -0.51977746     2.05121626     1.28748504
 H                     0.66822857     3.44245816     0.27521202

     9
 R-2H1C_tct
 Se                   -2.11662051    -0.92209684    -0.14770860
 Se                    2.18545763    -1.37626615    -0.03460801
 Se                   -0.09621734     2.26728671     0.22522433
 H                    -2.17019863    -0.58318128     1.26904401
 H                    -0.74417205    -1.40556925    -0.00910228
 H                     2.16377341    -1.39610374    -1.49204952
 H                     1.67868366    -0.00474127    -0.01910655
 H                    -0.55115477     2.11412898    -1.14892408
 H                     0.69165463     3.44629357    -0.12378079

     9
 R-2H1C_ttc
 Se                   -2.10325855    -0.89710628    -0.15667276
 Se                    2.16970082    -1.39167543     0.11433176
 Se                   -0.09908033     2.27929132     0.07361339
 H                    -2.37708058    -1.41527827    -1.49136945
 H                    -0.74299398    -1.43037153    -0.19307638
 H                     1.99653166    -1.55337743     1.55265647
 H                     1.64793902    -0.02695125     0.17728975
 H                    -0.32124565     1.98841891    -1.33542183
 H                     0.82807288     3.35858989    -0.25488573

     9
 R-2H1C_ccc
 Se                   -2.13040427    -0.86762020    -0.09662503
 Se                    2.15409142    -1.42557362     0.03093267
 Se                   -0.05403008     2.27227143     0.18852478
 H                    -2.32525851    -1.30193089    -1.47450434
 H                    -0.77590170    -1.41675342    -0.08346118
 H                     2.17540537    -1.39675557    -1.42638373
 H                     1.65734886    -0.05074075     0.07631039
 H                    -0.35661674     2.04289612    -1.21684084
 H                     0.85909203     3.36181892    -0.14567634

     9
 R-1H2C_ctt
 Se                   -2.22948463    -0.91971320    -0.15812710
 Se                    2.06084254    -1.12796980     0.13476493
 Se                    0.11036056     2.06131549     0.06027723
 H                    -2.27884022    -0.38752607     1.19814028
 H                    -0.82876277    -1.30048463     0.01392075
 H                     2.03217468    -0.64315384    -1.23763470
 H                     2.68677721    -2.38068826    -0.27877568
 H                    -0.67590326     2.15742305    -1.16116909
 H                     0.87119689     3.25838725    -0.28587509

     9
 R-1H2C_tct
 Se                   -2.19618027    -0.93561575    -0.12641720
 Se                    2.09393094    -1.09056296    -0.09120940
 Se                    0.03431904     2.06800252     0.25519814
 H                    -2.52117735    -1.44479392    -1.45308448
 H                    -0.80771265    -1.37010615    -0.26238181
 H                     1.84494343    -0.80578890     1.31458600
 H                     2.70937990    -2.37330034     0.23837174
 H                    -0.00816259     1.71544466    -1.15686665
 H                     1.16801714     2.96137982     0.03571555

     9
 R-1H2C_ttc
 Se                   -2.19702420    -0.99764478     0.15434710
 Se                    2.10581739    -1.06087212     0.16894325
 Se                    0.03593639     2.07393723    -0.26356011
 H                    -2.18601097    -0.61845829    -1.25320918
 H                    -0.77806765    -1.34437007     0.09910361
 H                     1.99667090    -0.70269440    -1.23783114
 H                     2.75037311    -2.32813000    -0.16554205
 H                    -0.22866912     1.80712145     1.14281896
 H                     1.02374955     3.09424693     0.07477172

     9
 R-1H2C_ccc
 Se                   -2.25776611    -0.82702511    -0.15554286
 Se                    2.00924948    -1.20327707     0.21492409
 Se                    0.19104252     2.05602478     0.05608122
 H                    -2.29651791    -1.31532704    -1.52858527
 H                    -0.87486586    -1.27706556    -0.00728711
 H                     2.02033499    -0.74764582    -1.16765685
 H                     2.59718499    -2.48590097    -0.16118392
 H                    -0.56649566     2.20064876    -1.17862205
 H                     1.03662236     3.19750099    -0.28093745

     9
 R-3C_ttc
 Se                   -1.87763904    -1.06089700     0.25612904
 Se                    1.86051395    -1.10910245     0.04678850
 Se                    0.00939115     2.16660406    -0.27051400
 H                    -1.47277744    -1.14554735    -1.13965032
 H                    -3.26405017    -0.80225733    -0.12160309
 H                     2.17138803    -0.50555868    -1.24093071
 H                     2.57070742    -2.33371171    -0.31137701
 H                    -0.03396948     1.78677112     1.13423983
 H                     0.96664974     3.23319215     0.01071945

     9
 R-3C_ccc
 Se                   -1.95350760    -0.90449322     0.04404645
 Se                    1.76006845    -1.23954051     0.04404672
 Se                    0.19343990     2.14403472     0.04404656
 H                    -1.57764298    -1.57802347    -1.19066520
 H                    -3.34987849    -0.82912682    -0.37701024
 H                     2.15542976    -0.57726782    -1.19066554
 H                     2.39298433    -2.48651665    -0.37700967
 H                    -0.57778678     2.15529166    -1.19066505
 H                     0.95689426     3.31564447    -0.37700988

     9
 O-2C_tata
 Se                   -0.53516055    -2.02823036     0.63702730
 Se                    2.25088980     0.48789702    -0.23495508
 Se                   -1.72888259     1.49046964    -0.38639816
 H                    -0.35914549    -1.37270917    -0.65489019
 H                    -0.21079920    -0.78731738     1.33322177
 H                     2.92247762    -0.79602441    -0.08250456
 H                     3.50743975     1.14266671    -0.58246323
 H                    -2.92206640     0.79770899     0.08170366
 H                    -2.49066257     2.71097036    -0.62820336

     9
 O-2C_tdtd
 Se                    0.00000000     0.00000000    -1.29941058
 Se                   -3.33650795     0.00000000     0.55678191
 Se                    3.33650795     0.00000000     0.55678191
 H                    -1.04959052     0.00000000    -2.31091742
 H                     1.04959052     0.00000000    -2.31091742
 H                    -2.37984427     1.03879257     0.91841359
 H                    -2.37984427    -1.03879257     0.91841359
 H                     2.37984427    -1.03879257     0.91841359
 H                     2.37984427     1.03879257     0.91841359

     9
 O-1H1C
 Se                    0.44888665     3.95951798     0.00000000
 Se                   -0.93697829    -0.20621145     0.00000000
 Se                    0.50335971    -3.72763890     0.00000000
 H                    -0.87607340     4.56597348     0.00000000
 H                    -0.13348269     2.61995793     0.00000000
 H                     0.05278749    -0.46161750     1.03980253
 H                     0.05278749    -0.46161750    -1.03980253
 H                    -0.94458415    -3.87908549     0.00000000
 H                     0.69312024    -5.17418702     0.00000000

     9
 O-2H_tata
 Se                    0.12591505     0.12432538     0.00280466
 Se                    3.01127697    -3.20178337     0.01202254
 Se                   -3.16273538     3.05223745    -0.01501187
 H                    -0.61430051    -0.58798983     1.03724123
 H                    -0.58741745    -0.59802575    -1.04349231
 H                     2.16532199    -2.01135706     0.01595889
 H                     4.21429372    -2.38066435    -0.03031781
 H                    -1.98311637     2.19126908    -0.01352460
 H                    -2.32684800     4.24450097     0.04047002

     9
 O-2H_taca
 Se                   -0.03766578     4.39738743     0.03332476
 Se                    0.20329309    -0.00006523    -0.03832258
 Se                   -0.03850495    -4.39681014     0.03682352
 H                    -1.47562027     4.31203242    -0.18765125
 H                     0.07720377     2.94148854     0.01993610
 H                    -0.99536114    -0.03098210     0.79096674
 H                    -0.60410664     0.02450566    -1.25197398
 H                    -1.41525408    -4.32099308    -0.43502505
 H                     0.09176156    -2.94364829    -0.02906103

    12
 B-4H2C
 Se                    1.23942313     1.70069323    -1.36225262
 Se                   -1.24183672     1.70222069     1.35815385
 Se                    1.36140147    -1.69904569     1.24272168
 Se                   -1.35900042    -1.70396713    -1.23853879
 H                     0.50172634     0.48961663    -1.71714135
 H                     2.42229412     1.22918284    -2.07475143
 H                    -0.50242286     0.49305581     1.71597581
 H                    -2.42404400     1.23077067     2.07179329
 H                     1.71690481    -0.48956970     0.50269849
 H                     2.07413416    -1.22562425     2.42468812
 H                    -1.71621265    -0.49320115    -0.50145381
 H                    -2.07240757    -1.23442735    -2.42164615

    12
 B-2H3C_I
 Se                   -1.77462152     1.44941031     0.99573526
 Se                    1.77529550     1.44732559    -0.99761878
 Se                   -1.25584013    -1.47766415    -1.35694993
 Se                    1.25516968    -1.47652914     1.35874593
 H                    -2.20967409     2.25311153     2.13533760
 H                    -2.63964181     0.34833308     1.39692097
 H                     2.63974826     0.34532624    -1.39749405
 H                     2.21073647     2.24943377    -2.13819479
 H                    -0.39410057    -0.32411201    -1.60722468
 H                    -2.36671008    -0.84883802    -2.06343208
 H                     0.39390782    -0.32230468     1.60756478
 H                     2.36634950    -0.84720120     2.06429289

    12
 B-1H4C
 Se                   -0.49328885    -1.66563721    -1.36780825
 Se                   -1.81396304     0.55022965     1.32587568
 Se                    0.36736300     1.96681597    -1.39890326
 Se                    1.93407135    -0.81626803     1.40526392
 H                     0.15056943    -2.78154031    -2.05752503
 H                    -0.69879034    -2.47416540    -0.17384647
 H                    -2.99968901    -0.00166771     1.97712151
 H                    -2.62468268     1.14307441     0.27146586
 H                     1.14524265     1.32557013    -0.34189055
 H                     0.76840955     3.29407341    -0.94439864
 H                     3.15835575    -0.60312282     2.17320426
 H                     2.69148895    -1.35302312     0.28274835

    12
 B-4H1C
 Se                   -1.25824963    -1.29659532     1.50791494
 Se                    1.67888500    -1.47718779    -1.58854074
 Se                    1.23391297     1.38707519     1.55603472
 Se                   -1.54463581     1.56269052    -1.66861295
 H                    -0.38295462    -1.76600570     0.43495098
 H                    -2.38932177    -2.03596036     0.95721322
 H                     2.10875255    -0.86051856    -0.33661529
 H                     0.82384550    -0.32546449    -1.86846541
 H                     0.75060778     1.61469045     0.19697650
 H                     2.48893422     2.06804967     1.25545967
 H                    -1.71954448     0.64479536    -0.54179745
 H                    -1.79003964     0.48401258    -2.61897320

    12
 B-3H2C
 Se                   -1.83338314    -1.16149118    -1.35508719
 Se                    1.46642397    -1.39004255     1.34839820
 Se                    1.79962958     1.24837026    -1.35458376
 Se                   -1.40974845     1.35766831     1.31461347
 H                    -0.78694172    -1.55296606    -0.41104037
 H                    -1.13891069    -1.83297534    -2.44871888
 H                     1.56607935    -2.67393705     2.03831576
 H                     2.47539225    -1.78920881     0.37740186
 H                     1.24691773     1.84332713    -0.14202102
 H                     0.50960568     0.62639781    -1.64798196
 H                    -1.98244190     2.26948579     2.29966086
 H                    -2.11521405     2.03216604     0.23203759

    12
 B-4C
 Se                   -1.38260549     1.38298154    -1.26936721
 Se                   -1.38629528    -1.38610821     1.26212533
 Se                    1.38954004    -1.38291553    -1.26196940
 Se                    1.37958365     1.38605512     1.26963651
 H                    -1.60184971     2.67395615    -1.91824237
 H                    -2.28397782     1.73864880    -0.18239432
 H                    -2.67899463    -1.60711741     1.90695537
 H                    -1.73905153    -2.28452646     0.17176346
 H                     1.61228019    -2.67385917    -1.90971456
 H                     2.28504342    -1.73863211    -0.17017238
 H                     2.66879073     1.60703326     1.92143110
 H                     1.73820931     2.28452311     0.18123205

    12
 B-2H3C_II
 Se                    0.12724180     2.20788219     1.38815706
 Se                   -0.12353923    -2.13047307     1.08575430
 Se                   -2.03202518    -0.09538654    -1.41025081
 Se                    2.00824851     0.00986716    -1.07795080
 H                    -0.48104887     2.09798788     0.06564662
 H                    -0.16128464     0.79781620     1.64106812
 H                     1.09141691    -1.83444491     1.83266286
 H                    -0.72797205    -2.77221494     2.25130695
 H                    -2.69075146     0.06129671    -0.11974824
 H                    -3.14096136     0.56486748    -2.09186343
 H                     2.94964444     0.65824251    -0.17499256
 H                     3.07193900    -0.80479145    -1.65998304

    12
 P-2H4C
 Se                   -1.68291870    -0.95589594    -1.41734796
 Se                    1.56360886    -1.73630861     1.23615942
 Se                    1.37918301     1.15419990    -1.27140432
 Se                   -1.26556772     1.56521431     1.32271548
 H                    -2.72551819    -1.94287986    -1.15225296
 H                    -0.70186831    -1.73112426    -0.66417170
 H                     1.26174744    -2.38417945     2.50915500
 H                     0.68146333    -0.61552902     1.55392810
 H                     2.58652282     0.86910832    -2.04043087
 H                     2.14569221     1.20916381    -0.03234718
 H                    -1.14798130     2.13251759     2.66420638
 H                    -2.01116232     0.42144270     1.82903188

    12
 P-5H1C_I
 Se                   -0.01304354     2.05865885     1.64511044
 Se                   -1.85149218     0.03942509    -1.64196924
 Se                   -0.04354700    -2.01445177     1.64298658
 Se                    1.83352249    -0.03229074    -1.63813751
 H                     0.82106319     1.57125729     0.54658950
 H                     0.42158837     0.95628504     2.49546252
 H                    -1.65140024     0.81691307    -0.42063397
 H                    -3.20189441    -0.32670075    -1.22810794
 H                    -0.82729486    -1.61075178     0.47663661
 H                     0.00050928    -3.39777818     1.18293433
 H                     3.17345350     0.29835337    -1.16466724
 H                     1.61386437    -0.92454586    -0.50164550

    12
 P-6H
 Se                   -1.90821120     0.39035727    -1.86068544
 Se                    1.89087445    -1.31847289    -0.85405270
 Se                    1.02611356     2.15358824     0.80194009
 Se                   -1.23743650    -1.00488087     2.07025236
 H                    -2.25228804    -0.50632305    -0.76105258
 H                    -1.18868091     1.26633955    -0.93778210
 H                     2.58651486    -0.03656305    -0.83980489
 H                     0.73641483    -0.72469091    -1.52889838
 H                     0.74916209     1.22235400     1.89020957
 H                     0.55289716     3.27962166     1.59981719
 H                    -0.06610477    -1.25518768     1.23046546
 H                    -1.12041794    -2.32132992     2.68687005

    12
 P-5H1C_II
 Se                    2.24996014    -0.36230038     1.28585390
 Se                    0.43055643    -1.75674455    -1.65338013
 Se                   -2.14916900    -0.35076714     1.50165342
 Se                   -0.13141956     2.32683050    -1.13505241
 H                     0.84956546    -0.66676486     1.57030171
 H                     2.28365138     0.61609577     2.36899742
 H                    -0.23345446    -2.99579096    -2.04275242
 H                    -0.45324251    -1.60856045    -0.49916589
 H                    -1.65501674     0.77903554     0.71246595
 H                    -1.60262168     0.22276135     2.72587210
 H                    -0.35087897     1.19212141    -2.02667533
 H                     0.91673926     1.58842955    -0.43053154

    12
 P-4H2C
 Se                   -0.35751546    -0.69212297     2.65204818
 Se                    1.49773325    -2.04047958    -0.96749318
 Se                    0.89251885     2.06048679    -0.05618410
 Se                   -1.73378493    -0.21976515    -1.43846604
 H                    -1.01151379    -0.43800237     1.36818850
 H                     0.48783713     0.48596682     2.48572893
 H                     2.77518146    -2.59799535    -0.53637412
 H                     1.05243882    -1.89874794     0.41755047
 H                     1.68779727     2.81325449    -1.01908542
 H                     1.47903967     0.79645925    -0.49949371
 H                    -2.37564815     0.99559686    -0.95537773
 H                    -3.00955390    -0.93045804    -1.45949102

    12
 F-2H3C_I
 Se                    3.40068353    -0.19318758    -0.61798756
 Se                    0.06327472    -1.54548809     0.63061504
 Se                   -3.39362517    -0.43461683    -0.52793440
 Se                   -0.06963690     2.13722180     0.46587303
 H                     2.55077415    -0.58596665    -1.73549346
 H                     2.47444787     0.87790711    -0.25939058
 H                    -0.95488382    -2.19511069     1.44763297
 H                     1.14637029    -2.12081703     1.41932553
 H                    -2.53473760     0.69945270    -0.19631803
 H                    -2.54855522    -0.77177768    -1.66706730
 H                    -0.04000239     1.76344608     1.87240160
 H                    -0.11700109     3.55914502     0.79600345

    12
 F-2H3C_II
 Se                    0.10933938     2.26445086    -0.84839368
 Se                   -2.93828583    -0.30937438     0.78778003
 Se                    2.78136569     0.10674812     0.91388470
 Se                    0.16508955    -2.00521075    -0.81788202
 H                     0.04652099     0.81018103    -1.00297351
 H                     0.04951038     2.12981302     0.60288942
 H                    -2.38893121     0.79353516     0.00607184
 H                    -3.97628756     0.55277136     1.34184634
 H                     3.21408613     0.44727389    -0.43423240
 H                     3.88137546    -0.83918479     1.07062035
 H                    -1.15856203    -2.57593684    -1.05745887
 H                    -0.13479574    -1.81710242     0.59533425

    12
 F-4H1C
 Se                    0.50488309     1.88612191    -0.23428769
 Se                    3.49736618    -1.20839571     0.20315110
 Se                   -0.75461329    -2.13058831     0.31599814
 Se                   -3.17698255     1.45966991    -0.27762519
 H                     0.26402382     1.61181436    -1.64558958
 H                     1.74516852     1.11040102    -0.25895245
 H                     2.18731935    -1.83147462     0.38206073
 H                     3.55190876    -0.85537303     1.61650688
 H                    -0.39093423    -0.71592102     0.20405474
 H                    -0.94783171    -1.99269116     1.75461660
 H                    -4.54891146     1.15691689    -0.67060385
 H                    -2.84876523     0.04015968    -0.19915598

    12
 R-4H
 Se                   -3.02419553     0.11042001     0.01650461
 Se                   -0.11050564    -3.04956420     0.01675332
 Se                    3.02419553    -0.11042001    -0.01650461
 Se                    0.11050564     3.04956420    -0.01675332
 H                    -3.19146077     0.08169440    -1.43122984
 H                    -1.97238855     1.12196285    -0.09314797
 H                    -0.00818979    -3.07188024    -1.43728684
 H                    -1.11488515    -1.98670071    -0.03941508
 H                     3.19146077    -0.08169440     1.43122984
 H                     1.97238855    -1.12196285     0.09314797
 H                     0.00818979     3.07188024     1.43728684
 H                     1.11488515     1.98670071     0.03941508

    12
 R-4C
 Se                   -1.65570672    -0.05018303    -1.42295371
 Se                   -2.03314760    -0.08219067     2.22527814
 Se                    1.65583690     0.05017540     1.42273261
 Se                    2.03316107     0.08220169    -2.22551115
 H                    -1.29920032    -1.15165999    -2.30597604
 H                    -3.05965426    -0.45281266    -1.42215579
 H                    -1.51025216    -1.40191245     1.90172862
 H                    -2.11230566    -0.41935799     3.64393834
 H                     1.29935313     1.15164651     2.30577138
 H                     3.05978237     0.45281214     1.42189169
 H                     1.51025848     1.40192182    -1.90196642
 H                     2.11230327     0.41935923    -3.64417456
