     6
 t-1c
 Te                   -0.01575656    -2.01240977     0.00000000
 Te                    0.02341153     2.00020151     0.00000000
 H                     0.42960574    -3.60845946     0.00000000
 H                     1.56837171    -1.55267830     0.00000000
 H                    -1.13302381     1.89149838    -1.17359994
 H                    -1.13302381     1.89149838     1.17359994

6
c-1c
 Te                  -0.03182258    -2.02182719     0.00000000
 Te                  -0.03239852     1.98970766     0.00000000
 H                    0.44291833    -3.60938498     0.00000000
 H                    1.54380668    -1.53339789     0.00000000
 H                    1.10848132     2.20965337    -1.17353294
 H                    1.10848132     2.20965337     1.17353294

     6
 2c-dada
 Te                    1.95285565     0.01711541    -0.02366149
 Te                   -1.95285565    -0.01711541    -0.02366149
 H                     1.67413041    -0.62509420     1.47099419
 H                     3.34996641     0.71860648     0.51597482
 H                    -1.67413041     0.62509420     1.47099419
 H                    -3.34996641    -0.71860648     0.51597482

     6
 vdw
 Te                    0.00000000     0.00000000    -2.35695638
 Te                    0.00000000     0.00000000     2.35695638
 H                     0.82825463    -0.82825463    -1.19228548
 H                    -0.82825463     0.82825463    -1.19228548
 H                    -0.82825463    -0.82825463     1.19228548
 H                     0.82825463     0.82825463     1.19228548

     6
 t-1h
 Te                   -0.00171004     2.48002207     0.00000000
 Te                    0.02304003    -2.42234019     0.00000000
 H                     0.13062645     0.83130471     0.00000000
 H                     1.64265272     2.63149367     0.00000000
 H                    -1.13224748    -2.29554866     1.17306147
 H                    -1.13224748    -2.29554866    -1.17306147

     9
 r-3h_ttc
 Te                   -2.31070455    -1.53409072    -0.09131419
 Te                    2.47744816    -1.25102686     0.02010898
 Te                   -0.16865920     2.78902897     0.09642504
 H                    -2.03944659    -1.28150775    -1.70135566
 H                    -0.68386199    -1.69091574     0.16997561
 H                     2.04995860    -1.60645924    -1.53547965
 H                     1.79774864     0.25181233    -0.11786120
 H                     0.12516322     2.64008775     1.71514855
 H                    -1.15014254     1.45691852     0.13524172

     9
 r-3h_ccc
 Te                   -2.31094952    -1.53414750     0.03875918
 Te                    2.48406909    -1.23426403     0.03875806
 Te                   -0.17309152     2.76840059     0.03877929
 H                    -2.11785315    -1.06737051    -1.53431589
 H                    -0.67296267    -1.70697270     0.20175825
 H                     1.98322575    -1.30046657    -1.53429871
 H                     1.81476066     0.27069620     0.20173428
 H                     0.13468204     2.36761998    -1.53423789
 H                    -1.14185344     1.43635536     0.20183178

     9
 r-2h1c_ctt
 Te                   -2.24910389    -0.97935297     0.16615176
 Te                    2.47717369    -1.52425430    -0.09287778
 Te                   -0.23966202     2.47007524    -0.01796969
 H                    -2.09121640    -0.81397810    -1.47002180
 H                    -0.72125753    -1.60710907     0.26419291
 H                     1.90456212    -1.81885102    -1.61427454
 H                     1.79168455    -0.01764125    -0.10994917
 H                    -0.56076341     2.20993182     1.57894884
 H                     0.64606266     3.81920497     0.36021491

     9
 r-2h1c_tct
 Te                   -2.26895447    -0.94938629    -0.14113452
 Te                    2.48208151    -1.53513683    -0.06604798
 Te                   -0.20669866     2.45337146     0.22988335
 H                    -2.39180782    -0.73924710     1.49266126
 H                    -0.76311675    -1.61131138     0.03748399
 H                     2.24632807    -1.45859716    -1.69937262
 H                     1.81257161    -0.03201277     0.11530398
 H                    -0.33496130     2.15973560    -1.38831350
 H                     0.75467057     3.77082328    -0.06674212

     9
 r-2h1c_ttc
 Te                   -2.21886039    -1.00288594    -0.04417093
 Te                    2.52495862    -1.46164346     0.09809987
 Te                   -0.25059966     2.48103160     0.01173104
 H                    -2.56653396    -1.01041060    -1.65906410
 H                    -0.70487906    -1.59939269    -0.34191528
 H                     2.07039597    -1.82183074     1.64498396
 H                     1.82079925     0.03147010     0.22106740
 H                    -0.28875816     1.93455139    -1.54471731
 H                     0.72466539     3.74370867    -0.43866857

     9
 r-2h1c_ccc
 Te                   -2.27605545    -0.97157431    -0.02689539
 Te                    2.47179725    -1.51309421    -0.03528746
 Te                   -0.21882444     2.46268870     0.18355578
 H                    -2.24214093    -1.00579484    -1.67836332
 H                    -0.75521897    -1.62046536     0.03514495
 H                     2.05756393    -1.44750921    -1.63332336
 H                     1.80779523    -0.01673085     0.21023600
 H                    -0.16731177     1.91135044    -1.37091429
 H                     0.81443790     3.69940251    -0.20522171

     9
 r-1h2c_ctt
 Te                   -2.43834738    -0.92842612    -0.17099496
 Te                    2.30166179    -1.18947925     0.11804404
 Te                    0.10120829     2.14658460     0.07937293
 H                    -2.50448310    -0.65389729     1.45657688
 H                    -0.91996260    -1.56776135    -0.01907833
 H                     2.26095203    -0.64788314    -1.43955321
 H                     3.14112021    -2.53910143    -0.35313091
 H                    -0.36451140     2.07693817    -1.50178226
 H                     1.20372901     3.33173645    -0.27710773

     9
 r-1h2c_tct
 Te                   -2.36371875    -1.07374959    -0.06802721
 Te                    2.38260115    -1.03723767    -0.09567398
 Te                    0.00358203     2.15081545     0.22627817
 H                    -2.62569224    -0.82593770    -1.68023260
 H                    -0.82163560    -1.58825208    -0.37493078
 H                     1.98602895    -0.88650075     1.49860240
 H                     3.18231726    -2.45503015     0.21932485
 H                    -0.23186979     1.80161125    -1.36924094
 H                     1.13050810     3.29825883    -0.17464754

     9
 r-1h2c_ctt
 Te                   -2.41139009    -0.99938343     0.10948591
 Te                    2.32745927    -1.10999047     0.14505761
 Te                    0.04552153     2.14392939    -0.21282823
 H                    -2.25578379    -0.96584686    -1.53485235
 H                    -0.87101316    -1.58527637     0.25753002
 H                     1.85005424    -0.98847131    -1.42955945
 H                     3.05971101    -2.56347943    -0.17206794
 H                    -0.27602800     1.95501904     1.39419270
 H                     1.17900220     3.30333760     0.13040413

     9
 r-1h2c_ccc
 Te                   -2.43858078    -0.94221714    -0.13482310
 Te                    2.29208090    -1.19437674     0.18618991
 Te                    0.10635261     2.15777138     0.05767893
 H                    -2.39923789    -1.00424021    -1.78532184
 H                    -0.91211057    -1.57585311    -0.05637372
 H                     2.10956935    -0.75206233    -1.39268708
 H                     3.07321446    -2.58208508    -0.27489739
 H                    -0.27511185     1.91180307    -1.52883818
 H                     1.25522896     3.27195922    -0.37326747

     9
 r-3c_ttc
 Te                   -1.97685333    -1.14816809     0.23688039
 Te                    1.99947512    -1.12700184     0.05025016
 Te                   -0.02560264     2.27390894    -0.25577763
 H                    -1.54348302    -1.43493731    -1.32891312
 H                    -3.56055536    -0.96133075    -0.21586862
 H                     1.90450903    -0.77363390    -1.55853769
 H                     2.60731718    -2.62995353    -0.29689992
 H                    -0.20169092     2.01648678     1.36428394
 H                     1.00952845     3.53507860     0.03896943

     9
 r-3c_ccc
 Te                   -2.02494281    -1.07748726     0.02921474
 Te                    1.94560031    -1.21491040     0.02920540
 Te                    0.07934237     2.29240097     0.02920006
 H                    -1.56730522    -1.45998868    -1.50900735
 H                    -3.59199814    -0.86593464    -0.46867489
 H                     2.04801859    -0.62732110    -1.50901299
 H                     2.54590516    -2.67779449    -0.46870504
 H                    -0.48074997     2.08731218    -1.50901375
 H                     1.04607910     3.54372565    -0.46871278

     9
 o-2c_tata
 Te                    0.03939911     0.22595854    -0.01725617
 Te                    3.90784701    -0.83138891     0.00327605
 Te                   -3.95665596     0.56184518     0.02213359
 H                    -0.17809183    -1.02493968    -1.07323777
 H                    -0.14419556    -0.79860484     1.26481652
 H                     3.86834230     0.81355320    -0.11492854
 H                     5.56421293    -0.81115913    -0.02373909
 H                    -3.35565712     2.08764129    -0.15708466
 H                    -5.50548019     1.14893645    -0.01197859

     9
 o-2c_taca
 Te                    0.00770983    -0.18024148    -0.00355256
 Te                    3.95841649    -0.87710979     0.00196032
 Te                   -3.85910949     0.88346102     0.00014795
 H                    -0.06656050    -1.34148639    -1.17567511
 H                    -0.06940221    -1.33653487     1.17326862
 H                     3.77057862     0.76178858     0.00129145
 H                     5.60622650    -0.70632335     0.00450235
 H                    -3.80848672    -0.76551752     0.00381109
 H                    -5.51544595     0.84972996     0.00486805

     9
 o-2c_caca
 Te                   -0.07905028    -0.45842376    -0.00051701
 Te                    3.93377935    -0.41255435     0.00093044
 Te                   -3.84484457     0.92851625     0.00070019
 H                    -0.27643383    -1.60475562    -1.17334700
 H                    -0.27616787    -1.60169052     1.17534372
 H                     3.46081922    -1.99313260     0.00171613
 H                     5.52561071    -0.87152420     0.00213855
 H                    -3.92850989    -0.71918433     0.00169839
 H                    -5.49846340     1.02913602     0.00195776

     9
 o-2c_tdtd
 Te                    0.00000000     0.00000000    -1.32786910
 Te                   -3.49713619     0.00000000     0.63824165
 Te                    3.49713619     0.00000000     0.63824165
 H                    -1.17777019     0.00000000    -2.49130160
 H                     1.17777019     0.00000000    -2.49130160
 H                    -2.81073600     1.17340230     1.57566933
 H                    -2.81073600    -1.17340230     1.57566933
 H                     2.81073600    -1.17340230     1.57566933
 H                     2.81073600     1.17340230     1.57566933

     9
 o-2c_tdcd
 Te                   -1.27118026    -0.02184898     0.00000000
 Te                    0.63384915    -3.55347324     0.00000000
 Te                    0.66576466     3.49400902     0.00000000
 H                    -2.44875222    -1.18546081     0.00000000
 H                    -2.42092545     1.16946086     0.00000000
 H                     1.58667619    -2.88873844     1.17342618
 H                     1.58667619    -2.88873844    -1.17342618
 H                    -0.23872728     4.22309860    -1.17359683
 H                    -0.23872728     4.22309860     1.17359683

     9
 o-2c_cdcd
 Te                   -0.89252052    -0.89251495    -0.00000300
 Te                    2.94835174    -2.05564598     0.00000008
 Te                   -2.05564217     2.94834296    -0.00000029
 H                    -2.54810630    -0.88298818     0.00000060
 H                    -0.88299211    -2.54810101    -0.00000242
 H                     2.82284330    -3.21068992    -1.17353718
 H                     2.82283553    -3.21068512     1.17354121
 H                    -3.21068658     2.82282440    -1.17353600
 H                    -3.21068041     2.82283294     1.17354241

    12
 b-1h4c_i
 Te                   -0.13734233     2.29347176     1.27814152
 Te                   -2.16079493     0.17248941    -1.39264474
 Te                    2.47212688     0.03673798    -0.63361938
 Te                   -0.18766297    -2.53095430     0.68854774
 H                    -0.76448144     0.93217137     1.96983572
 H                     0.65502477     2.66535019     2.68717944
 H                    -3.14838682    -0.23316094    -0.13471437
 H                    -3.26076357     1.29907399    -1.91516656
 H                     1.29550990     0.56453577    -1.66374928
 H                     3.12535033    -0.90423766    -1.83384132
 H                    -1.31915522    -3.26589139     1.65563510
 H                     0.28570661    -1.57147228     1.94506982

    12
 b-4c_i
 Te                   -1.52255943     1.46112333    -1.28843666
 Te                   -1.46253713    -1.52420460     1.28496788
 Te                    1.52568091    -1.46094041    -1.28500236
 Te                    1.45952485     1.52403712     1.28865826
 H                    -1.70441943     2.93529155    -2.02758467
 H                    -2.64095654     1.87526751    -0.14826290
 H                    -2.93753487    -1.70699551     2.02222898
 H                    -1.87539830    -2.64116413     0.14292114
 H                     1.70930222    -2.93500802    -2.02391551
 H                     2.64135716    -1.87524017    -0.14222246
 H                     2.93276099     1.70672744     2.02945803
 H                     1.87510683     2.64115219     0.14775106

    12
 b-4c_ii
 Te                   -1.60740541    -1.41062726     1.15057683
 Te                    1.60384249    -1.82704429    -1.10657201
 Te                    1.60489079     1.41261620     1.14919061
 Te                   -1.60429860     1.82445674    -1.11175468
 H                    -3.14374071    -1.41639905     1.77606489
 H                    -2.07243777    -2.44599996    -0.04713638
 H                     1.30461834    -2.83877233    -2.38729943
 H                     1.24038762    -0.51318737    -2.03696760
 H                     3.14057405     1.41972476     1.77625690
 H                     2.07129106     2.44500451    -0.05056567
 H                    -1.30444327     2.83372759    -2.39427158
 H                    -1.24154534     0.50874139    -2.03979359

    12
 b-1h4c_ii
 Te                   -1.75061631    -1.04683370    -1.52162268
 Te                    1.85801531    -1.91323817     1.32631460
 Te                    1.49364940     1.21349196    -1.21334121
 Te                   -1.52297526     1.71721114     1.29328142
 H                    -3.00690439    -2.08504010    -1.23224454
 H                    -0.75556649    -1.91869940    -0.53033282
 H                     1.69060575    -2.77181785     2.73322697
 H                     0.96719444    -0.67144400     1.95359917
 H                     2.96429966     0.87518432    -1.89979244
 H                     2.21485198     1.48566714     0.24605952
 H                    -1.12543078     2.46330141     2.72045138
 H                    -1.50252206     0.24417521     2.03739282

    12
 b-1h4c_iii
 Te                   -0.47916534    -1.74752535    -1.49868627
 Te                   -1.86402526     0.57266181     1.36188297
 Te                    0.29563425     2.14264450    -1.55221374
 Te                    2.08921852    -0.86565321     1.52056975
 H                     0.41091765    -2.90594991    -2.28449849
 H                    -0.48058288    -2.65515766    -0.11993456
 H                    -3.07627151    -0.14650353     2.23598091
 H                    -2.97688177     1.33711113     0.41250320
 H                     1.45715344     1.53510592    -0.54617907
 H                     0.72276311     3.69358715    -1.16301778
 H                     3.37110711    -0.84635815     2.56951267
 H                     2.88077002    -1.93518224     0.54363224

    12
 b-2h3c_i
 Te                    2.41131024    -0.39648018     1.43138416
 Te                    0.41477982    -1.90111173    -1.62976679
 Te                   -2.29960271     0.40510020     1.69666535
 Te                   -0.51061262     1.93155212    -1.52925333
 H                     1.71863536    -1.79317922     1.97116195
 H                     3.00714805    -0.08607395     2.94822619
 H                     0.38257887    -3.51887588    -1.26168591
 H                    -1.08210626    -1.70106095    -0.96369210
 H                    -2.53362683    -1.14100872     1.16193714
 H                    -0.67024315     0.13098093     1.82072662
 H                     0.73541480     2.46350674    -2.48510483
 H                     0.52787653     1.74025974    -0.25790902

    12
 b-1h3c_i
 Te                    0.03542803    -1.98379660     2.20506086
 Te                   -2.05848475    -0.40566372    -1.82338384
 Te                    0.33393212     1.95848224     1.65544573
 Te                    1.80548011     0.39743618    -1.66857040
 H                    -0.79802876    -1.59504556     0.82735676
 H                     1.30061898    -2.54341773     1.30096145
 H                    -3.70514367    -0.22848720    -1.72278038
 H                    -1.86023588     1.22935435    -1.72359237
 H                    -1.00442280     1.30454584     0.93960203
 H                    -0.05890672     3.45286166     1.05379445
 H                     1.95517850    -0.64914558    -0.40099579
 H                     2.32453676    -0.77305372    -2.72318590

    12
 b-1h3c_ii
 Te                    0.55921874     2.53737437     1.48073210
 Te                    0.00411032    -2.28540121     1.04577492
 Te                   -2.02502789    -0.08281017    -1.54376071
 Te                    2.13939614     0.12824014    -1.22569140
 H                    -0.67489294     1.78419130     0.67351819
 H                     0.28565371     1.60148081     2.81519178
 H                     0.35674646    -0.87654263     1.83088149
 H                    -1.01774118    -2.73660948     2.27230079
 H                    -3.18108551    -0.83575406    -0.63944190
 H                    -3.19270885     0.73349131    -2.39298497
 H                     3.44730179     0.49281715    -0.28692205
 H                     3.07971935    -0.83035082    -2.19820040

    12
 b-2h3c_ii
 Te                   -1.98353780     1.58711856     0.96248178
 Te                    1.98543724     1.58397554    -0.96482259
 Te                   -1.35257752    -1.60333448    -1.39669163
 Te                    1.35145757    -1.60281092     1.39857643
 H                    -2.49426478     2.65431860     2.12320650
 H                    -2.93175603     0.40243357     1.61222779
 H                     2.93252227     0.39755693    -1.61305699
 H                     2.49727651     2.64924843    -2.12682407
 H                    -0.49358889    -0.26851047    -1.86043830
 H                    -2.72247841    -1.01189896    -2.11040792
 H                     0.49362700    -0.26658112     1.86040970
 H                     2.72175372    -1.01176596     2.11185816

    12
 b-2h2c_i
 Te                   -1.82290803    -1.18654416    -1.64722455
 Te                    1.62175519    -1.53350109     1.62025770
 Te                    1.36492380     1.10240142    -1.31635422
 Te                   -1.54930009     1.30815913     1.41746152
 H                    -1.04896191    -1.88173224    -0.36395211
 H                    -1.39395289    -2.45720007    -2.62251735
 H                     2.07090119    -2.98187097     2.28519620
 H                     1.94287160    -2.11528002     0.10747385
 H                     2.30507302     2.44244707    -1.04967234
 H                     0.16838099     2.04177266    -1.95681687
 H                    -3.00623018     1.64803580     2.13226144
 H                    -1.68303407     2.66101891     0.47931197

    12
 b-2h2c_ii
 Te                   -0.14399179    -0.15660168     2.98030040
 Te                    1.13614229    -2.43105313    -1.00579631
 Te                    0.98972824     2.53772155    -0.84600261
 Te                   -2.00380791    -0.03566264    -1.09492906
 H                    -1.42448725    -0.81700516     2.16934657
 H                     0.11183650     0.91103851     1.74042310
 H                     2.37893458    -1.44403836    -1.46690129
 H                     1.13710438    -1.76228687     0.50852605
 H                     2.54847724     3.06974911    -0.65041436
 H                     1.52651036     0.99436730    -1.08323559
 H                    -3.32374633     0.89020931    -1.48294553
 H                    -1.85834305    -0.52130987    -2.66554571

    12
 b-4h2c
 Te                    1.22426705     1.90946143    -1.57645271
 Te                   -1.21471612     2.01074673     1.45392957
 Te                    1.51172680    -1.92539432     1.28143793
 Te                   -1.52033153    -1.99530940    -1.15656301
 H                     0.45854289     0.46140598    -1.80940677
 H                     2.59894390     1.32120363    -2.28447577
 H                    -0.45566922     0.57673029     1.77782823
 H                    -2.59199480     1.47466105     2.19743203
 H                     1.79357318    -0.50904629     0.47398109
 H                     2.23925550    -1.32150665     2.63904686
 H                    -1.79550494    -0.52958497    -0.44004562
 H                    -2.24525041    -1.47485272    -2.54965231

    12
 b-4h1c
 Te                    0.67359053     1.69763127    -1.98846732
 Te                    2.26223665    -0.47289987     1.90183872
 Te                   -0.81951482    -2.77566313    -0.80099584
 Te                   -2.06415221     1.51422702     0.86866019
 H                     0.99187789     0.59855289    -3.18104686
 H                     1.73323075     0.93950060    -0.96906794
 H                     1.98960071    -1.69210198     0.81925941
 H                     0.70613994     0.06106734     1.70918703
 H                    -0.35957483    -1.22381121    -1.14998899
 H                    -0.78805149    -2.42904914     0.81437514
 H                    -3.10461916     1.08002499     2.08157513
 H                    -2.32181876     0.07531587     0.10056156

    12
 p-2h4c
 Te                   -1.84863423    -0.19591790    -1.29380204
 Te                    2.07995141    -0.48663698    -1.47620191
 Te                    0.51649780     2.47885346     0.66267324
 Te                   -0.84188455    -1.75977653     2.17519717
 H                    -3.35576589     0.49007327    -1.20166188
 H                    -1.28344302     1.10913393    -2.13185910
 H                     1.94009780    -0.92728442     0.10905376
 H                     2.43355848    -2.05108865    -1.89745186
 H                     0.37519409     1.15682744     1.64477650
 H                     1.71296570     3.09782495     1.62579537
 H                    -0.22422056    -2.56116765     0.86983555
 H                    -0.27428848    -2.93920276     3.18982404

    12
 p-3h3c
 Te                   -2.08584920     0.40931038    -1.35710136
 Te                    2.38928996    -1.16543414    -0.98736956
 Te                    0.96485462     2.35140594     0.25944516
 Te                   -1.18905611    -1.55109573     2.00909585
 H                    -3.57274690    -0.30251592    -1.54247496
 H                    -2.67211151     1.35367492    -0.13781055
 H                     2.05099137    -1.42092943     0.61001738
 H                     0.77481959    -1.24459652    -1.33655087
 H                     0.62427463     1.13671849     1.32787721
 H                     0.06854508     3.41620677     1.16134121
 H                    -0.79729712    -2.57904484     0.77900008
 H                    -0.63377096    -2.64634627     3.12314527

    12
 r-4c
 Te                   -1.96161667     0.01311392    -1.95392290
 Te                   -1.98032393     0.01416122     2.00420511
 Te                    1.96162925    -0.01310828     1.95391810
 Te                    1.98033247    -0.01416713    -2.00420993
 H                    -1.48943810    -1.56714236    -1.99444298
 H                    -3.55564865    -0.44779764    -1.93857060
 H                    -1.85938954    -1.54493440     1.47869613
 H                    -1.96478329    -0.50025564     3.58148705
 H                     1.48945530     1.56714949     1.99443407
 H                     3.55566255     0.44779861     1.93856283
 H                     1.85940271     1.54492731    -1.47869636
 H                     1.96479336     0.50025441    -3.58149035

    12
 f-2h3c
 Te                    3.41954703    -0.35458371    -0.90533259
 Te                    0.06969755    -1.57413428     0.89730881
 Te                   -3.40794322    -0.60468468    -0.81280192
 Te                   -0.07639013     2.37283370     0.78255071
 H                     2.38379547    -0.41387280    -2.19113495
 H                     2.67139943     1.01178230    -0.34966814
 H                    -1.07976999    -2.00251970     2.00952413
 H                     1.27712528    -1.91619850     1.97755097
 H                    -2.74683049     0.81332220    -0.27649085
 H                    -2.40592194    -0.58959215    -2.12631216
 H                    -0.04049556     1.98202955     2.38414063
 H                    -0.13057667     3.98841083     1.15407177
